cristofides/toy.tsp
NAME: gr96
TYPE: TSP
COMMENT: Africa-Subproblem of 666-city TSP (Groetschel)
DIMENSION: 5
EDGE_WEIGHT_TYPE: EUC_2D
DISPLAY_DATA_TYPE: COORD_DISPLAY
NODE_COORD_SECTION
 1 0 0
 2 -0.70711 0.70711
 3 0.70711 0.70711
 4 -0.70711 -0.70711
 5 0.70711 -0.70711
EOF
