matching/toy.gr
c aa
p edge 10 11
e 1 10
e 1 9
e 1 6
e 2 6
e 3 7
e 3 8
e 3 9
e 4 7
e 4 9
e 4 10
e 5 9
